%mem=4GB
%nprocshared=4
%chk=C60.chk
#p b3lyp geom=connectivity def2svp em=gd3bj

This C60 has been optimized at B3LYP-D3(BJ)/def2svp

0 1
 C                  3.53605200    0.13520400    0.35331700
 C                  3.38596200   -0.01041700   -1.08785200
 C                  2.85738600    1.03873300   -1.84480000
 C                  2.45698100    2.27762000   -1.19250000
 C                  2.60123700    2.41743700    0.19044200
 C                  3.15199600    1.32420400    0.97928600
 C                  3.22356700   -1.14638700    0.97016000
 C                  2.87999600   -2.08400600   -0.08975200
 C                  2.98042800   -1.38202100   -1.36165300
 C                  2.06285800   -1.64909000   -2.38132100
 C                  1.90129800    0.76037100   -2.90738700
 C                  1.25352100    2.76490700   -1.85196200
 C                  0.24285100    3.37218600   -1.10183700
 C                  0.39321200    3.51810300    0.33922500
 C                  1.54808100    3.05040700    0.97207300
 C                  1.44778900    2.34819000    2.24382600
 C                  2.43913800    1.28150700    2.24841600
 C                  2.13917800    0.05160000    2.84026300
 C                  2.53960400   -1.18739600    2.18814100
 C                  1.86645800   -3.02493000    0.11103700
 C                  1.15369100   -3.06765800    1.38018100
 C                  1.48324100   -2.16773400    2.39728800
 C                  0.43010500   -1.53474200    3.17884700
 C                  0.83550900   -0.16313600    3.45255500
 C                 -0.11569400    0.86061600    3.44842900
 C                  0.19675700    2.14208000    2.83143900
 C                 -1.00666100    2.62955400    2.17212300
 C                 -0.91048200    3.30342400    0.95163200
 C                  0.91007600    1.82717100   -2.91178600
 C                 -3.22356700    1.14638700   -0.97016000
 C                 -2.53960400    1.18739600   -2.18814100
 C                 -2.13917900   -0.05160000   -2.84026200
 C                 -2.43913800   -1.28150800   -2.24841600
 C                 -3.15199600   -1.32420400   -0.97928600
 C                 -3.38596200    0.01041700    1.08785200
 C                 -2.98042800    1.38202200    1.36165300
 C                 -2.87999600    2.08400700    0.08975300
 C                 -1.86645800    3.02493000   -0.11103600
 C                 -1.15369100    3.06765800   -1.38018100
 C                 -1.48324000    2.16773400   -2.39728800
 C                 -0.83550800    0.16313500   -3.45255400
 C                  0.11569400   -0.86061500   -3.44842900
 C                 -0.19675700   -2.14208000   -2.83143800
 C                 -1.44778900   -2.34819100   -2.24382600
 C                 -1.54808200   -3.05040800   -0.97207400
 C                 -2.60123700   -2.41743700   -0.19044200
 C                 -2.45698100   -2.27762000    1.19249900
 C                 -2.85738600   -1.03873300    1.84480000
 C                 -2.06285800    1.64909000    2.38132100
 C                 -1.51230200    0.55588400    3.17023500
 C                 -1.90129700   -0.76037100    2.90738600
 C                 -0.91007600   -1.82717100    2.91178600
 C                 -1.25352100   -2.76490700    1.85196100
 C                 -0.24285100   -3.37218600    1.10183600
 C                 -0.39321100   -3.51810300   -0.33922500
 C                  0.91048200   -3.30342400   -0.95163200
 C                  1.00666100   -2.62955400   -2.17212300
 C                 -0.43010500    1.53474200   -3.17884600
 C                  1.51230200   -0.55588400   -3.17023400
 C                 -3.53605300   -0.13520400   -0.35331800

 1 2 1.0 6 1.5 7 1.0
 2 3 1.5 9 1.0
 3 4 1.0 11 1.0
 4 5 1.5 12 1.0
 5 6 1.0 15 1.0
 6 17 1.0
 7 8 1.0 19 1.5
 8 9 1.0 20 1.5
 9 10 1.5
 10 57 1.0 59 1.0
 11 29 1.0 59 1.5
 12 13 1.5 29 1.0
 13 14 1.0 39 1.0
 14 15 1.5 28 1.0
 15 16 1.0
 16 17 1.0 26 1.5
 17 18 1.5
 18 19 1.0 24 1.0
 19 22 1.0
 20 21 1.0 56 1.0
 21 22 1.5 54 1.0
 22 23 1.0
 23 24 1.0 52 1.5
 24 25 1.5
 25 26 1.0 50 1.0
 26 27 1.0
 27 28 1.5 49 1.0
 28 38 1.0
 29 58 1.5
 30 31 1.5 37 1.0 60 1.0
 31 32 1.0 40 1.0
 32 33 1.5 41 1.0
 33 34 1.0 44 1.0
 34 46 1.0 60 1.5
 35 36 1.0 48 1.5 60 1.0
 36 37 1.0 49 1.5
 37 38 1.5
 38 39 1.0
 39 40 1.5
 40 58 1.0
 41 42 1.5 58 1.0
 42 43 1.0 59 1.0
 43 44 1.5 57 1.0
 44 45 1.0
 45 46 1.0 55 1.5
 46 47 1.5
 47 48 1.0 53 1.0
 48 51 1.0
 49 50 1.0
 50 51 1.5
 51 52 1.0
 52 53 1.0
 53 54 1.5
 54 55 1.0
 55 56 1.0
 56 57 1.5
 57
 58
 59
 60

